# Solution for model VRP
# Objective value = 3.6051104862491695e+02
x_00 0
x_01 0
x_02 0
x_03 0
x_04 0
x_05 0
x_10 0
x_11 0
x_12 0
x_13 0
x_14 0
x_15 0
x_20 0
x_21 0
x_22 0
x_23 0
x_24 0
x_25 1
x_30 0
x_31 0
x_32 0
x_33 0
x_34 0
x_35 0
x_40 0
x_41 0
x_42 0
x_43 1
x_44 0
x_45 0
x_50 0
x_51 0
x_52 0
x_53 0
x_54 1
x_55 0
y_0 0
y_1 0
y_2 1
f_00 1
f_01 0
f_02 0
f_03 0
f_04 0
f_05 0
f_10 0
f_11 1
f_12 0
f_13 0
f_14 0
f_15 0
f_20 0
f_21 0
f_22 1
f_23 1
f_24 1
f_25 1
z_3 1
z_4 0
z_5 0
a_03 0
a_04 0
a_05 0
a_13 0
a_14 0
a_15 0
a_23 1
a_24 0
a_25 0
t_00 0
t_01 0
t_02 0
t_03 0
t_04 0
t_05 0
t_10 0
t_11 0
t_12 0
t_13 0
t_14 0
t_15 0
t_20 0
t_21 0
t_22 0
t_23 0
t_24 0
t_25 8.4190128190101717e+01
t_30 0
t_31 0
t_32 0
t_33 0
t_34 0
t_35 0
t_40 0
t_41 0
t_42 0
t_43 3.1174053559066177e+01
t_44 0
t_45 0
t_50 0
t_51 0
t_52 0
t_53 0
t_54 5.7589703407610912e+01
t_55 0
